set VV := 0 1 2 3 4 5 6 7 8 9 10 11 12 13 14 15 16 17 18 19 20 21 22 23 24 25 26 27 28 29 30 31 32 33 34 35 36 37 38 39 40 41 42 43 44 45 46 ;
set VS := 0 1 2 3 4 5 6 7 8 9 10 11 12 13 14 15 16 17 18 19 20 21 22 23 24 25 26 27 28 29 30 31 32 33 34 35 36 37 38 39 40 41 42 43 44 45 46 47 48 49 50 51 52 53 54 55 56 57 58 59 60 61 62 63 64 65 66 67 68 69 70 71 72 73 74 75 76 77 78 79 80 81 82 83 84 85 86 87 88 89 90 91 92 93 94 95 96 97 ;
param cv := 
0 20
1 14
2 22
3 20
4 19
5 23
6 13
7 14
8 15
9 16
10 18
11 21
12 23
13 12
14 21
15 20
16 16
17 14
18 21
19 11
20 10
21 25
22 20
23 16
24 19
25 19
26 12
27 22
28 19
29 12
30 20
31 19
32 17
33 23
34 24
35 12
36 16
37 20
38 25
39 10
40 25
41 16
42 20
43 25
44 23
45 12
46 13
;
param cs := 
0 39
1 26
2 29
3 40
4 30
5 23
6 20
7 31
8 25
9 25
10 28
11 37
12 20
13 23
14 23
15 24
16 38
17 30
18 25
19 35
20 34
21 33
22 31
23 20
24 29
25 40
26 27
27 26
28 20
29 28
30 27
31 31
32 35
33 32
34 39
35 20
36 22
37 29
38 25
39 34
40 40
41 30
42 32
43 37
44 25
45 22
46 26
47 21
48 27
49 34
50 25
51 34
52 33
53 29
54 21
55 33
56 27
57 31
58 29
59 28
60 29
61 33
62 33
63 31
64 38
65 26
66 25
67 35
68 39
69 39
70 30
71 36
72 21
73 29
74 25
75 26
76 30
77 33
78 38
79 36
80 25
81 31
82 26
83 40
84 32
85 23
86 23
87 33
88 33
89 40
90 25
91 26
92 34
93 20
94 32
95 26
96 38
97 37
;
param bv:	 0 1 2 3 4 5 6 7 8 9 10 11 12 13 14 15 16 17 18 19 20 21 22 23 24 25 26 27 28 29 30 31 32 33 34 35 36 37 38 39 40 41 42 43 44 45 46 := 
		0 0 0 0 17 0 0 0 0 0 0 0 0 0 0 0 11 0 0 0 0 0 15 10 16 0 0 19 0 0 0 0 0 0 0 0 0 0 0 0 0 19 0 0 11 13 0 0 
		1 0 0 0 0 0 0 0 15 0 0 0 0 0 0 0 0 0 0 0 0 0 0 0 0 0 0 0 0 0 0 0 0 12 0 15 0 18 0 0 0 0 0 0 0 0 0 0 
		2 0 0 0 0 0 0 0 0 0 0 0 0 0 0 0 0 0 0 0 0 0 24 0 0 0 0 0 0 0 0 0 0 0 24 0 0 19 0 0 0 0 0 0 0 0 0 0 
		3 0 0 0 0 0 0 0 14 0 0 0 0 0 0 0 0 0 0 0 0 0 0 0 0 0 0 20 0 0 0 0 0 0 23 0 0 0 0 0 0 0 0 19 0 0 0 0 
		4 0 0 0 0 0 0 0 17 0 0 0 0 11 0 0 0 0 0 0 0 0 0 0 0 0 0 23 0 0 0 0 0 0 0 20 0 0 0 0 0 0 0 0 0 0 0 23 
		5 0 0 0 0 0 0 0 0 0 0 0 0 0 0 0 0 0 0 0 0 0 0 0 24 0 0 0 0 0 11 16 0 0 23 0 0 0 0 0 0 0 0 0 0 0 0 0 
		6 0 0 0 0 0 0 0 0 0 0 0 0 0 0 10 25 23 0 0 0 0 0 0 0 0 0 0 0 0 12 0 0 0 0 23 17 0 0 0 0 23 0 0 0 0 0 11 
		7 0 0 0 0 0 0 0 0 0 0 0 0 0 0 0 0 0 0 0 0 0 0 0 0 0 0 0 20 0 0 0 0 0 0 0 0 0 10 0 0 0 0 0 19 0 25 0 
		8 0 0 0 0 0 0 0 0 0 0 0 0 0 0 16 0 0 0 0 0 0 0 0 0 0 0 0 0 0 0 0 0 0 0 0 0 0 0 0 13 0 0 0 0 0 0 0 
		9 0 0 0 0 0 0 0 0 0 0 0 0 17 0 15 0 0 0 0 0 0 0 0 0 17 0 0 0 0 0 19 0 0 12 0 0 0 0 0 0 0 0 18 24 22 12 0 
		10 0 0 0 0 0 0 0 0 0 0 0 24 0 0 0 18 0 0 0 0 0 0 0 0 18 18 0 0 0 0 0 0 18 0 24 0 0 0 0 0 0 0 0 0 0 0 0 
		11 0 0 0 0 0 0 0 0 0 0 0 0 0 0 0 0 0 16 0 0 0 0 0 0 0 0 0 0 0 18 0 0 0 0 19 0 0 0 0 0 0 0 0 0 0 0 0 
		12 0 0 0 0 0 0 0 0 0 0 0 0 0 12 0 0 0 0 0 0 0 0 0 0 0 0 0 10 0 0 0 0 0 0 23 19 0 0 0 0 0 0 0 0 0 0 0 
		13 0 0 0 0 0 0 0 0 0 0 0 0 0 0 0 0 0 0 0 0 0 0 0 0 0 0 0 0 0 0 0 0 0 0 0 15 0 0 0 0 0 0 0 0 0 22 0 
		14 0 0 0 0 0 0 0 0 0 0 0 0 0 0 0 0 0 0 0 0 0 0 0 0 0 0 0 0 0 12 0 0 0 0 0 0 0 0 0 22 0 0 0 0 21 0 0 
		15 0 0 0 0 0 0 0 0 0 0 0 0 0 0 0 0 0 0 14 0 0 0 0 0 0 0 0 0 0 0 0 0 0 0 0 0 0 0 0 0 0 0 0 0 0 22 14 
		16 0 0 0 0 0 0 0 0 0 0 0 0 0 0 0 0 0 0 0 0 0 0 0 0 0 0 0 0 0 0 0 0 0 0 0 0 0 0 0 22 0 20 0 0 0 0 0 
		17 0 0 0 0 0 0 0 0 0 0 0 0 0 0 0 0 0 0 0 0 0 0 0 0 0 0 0 11 0 0 0 0 0 0 0 0 0 0 0 0 0 0 0 0 0 0 0 
		18 0 0 0 0 0 0 0 0 0 0 0 0 0 0 0 0 0 0 0 0 0 0 0 0 0 0 18 0 0 0 0 0 0 0 0 0 0 20 0 0 0 0 0 0 0 0 21 
		19 0 0 0 0 0 0 0 0 0 0 0 0 0 0 0 0 0 0 0 0 0 0 0 0 0 0 0 0 0 0 0 0 0 0 18 0 0 0 0 0 0 24 0 0 0 0 11 
		20 0 0 0 0 0 0 0 0 0 0 0 0 0 0 0 0 0 0 0 0 0 0 0 0 0 0 20 0 0 0 0 0 0 0 0 0 23 0 0 0 0 0 0 0 0 0 0 
		21 0 0 0 0 0 0 0 0 0 0 0 0 0 0 0 0 0 0 0 0 0 0 0 0 0 0 19 21 0 14 0 12 0 0 0 0 0 0 0 0 0 0 0 0 0 15 0 
		22 0 0 0 0 0 0 0 0 0 0 0 0 0 0 0 0 0 0 0 0 0 0 0 0 0 0 0 0 0 0 0 0 11 0 0 0 0 0 0 0 0 0 0 25 0 0 0 
		23 0 0 0 0 0 0 0 0 0 0 0 0 0 0 0 0 0 0 0 0 0 0 0 0 0 0 0 0 0 0 0 0 0 0 0 0 0 0 0 0 0 0 11 0 25 0 0 
		24 0 0 0 0 0 0 0 0 0 0 0 0 0 0 0 0 0 0 0 0 0 0 0 0 0 0 0 0 0 0 0 0 0 15 0 14 0 0 15 17 0 14 16 0 0 25 0 
		25 0 0 0 0 0 0 0 0 0 0 0 0 0 0 0 0 0 0 0 0 0 0 0 0 0 0 0 0 0 0 0 0 0 0 0 0 0 0 0 0 0 0 0 0 0 0 0 
		26 0 0 0 0 0 0 0 0 0 0 0 0 0 0 0 0 0 0 0 0 0 0 0 0 0 0 0 0 0 0 19 25 0 24 0 0 14 0 0 0 0 0 0 0 0 0 0 
		27 0 0 0 0 0 0 0 0 0 0 0 0 0 0 0 0 0 0 0 0 0 0 0 0 0 0 0 0 0 0 0 14 0 0 0 0 0 0 0 0 0 0 0 0 0 23 0 
		28 0 0 0 0 0 0 0 0 0 0 0 0 0 0 0 0 0 0 0 0 0 0 0 0 0 0 0 0 0 0 0 11 0 0 12 0 0 0 0 0 0 0 0 16 0 0 0 
		29 0 0 0 0 0 0 0 0 0 0 0 0 0 0 0 0 0 0 0 0 0 0 0 0 0 0 0 0 0 0 0 0 0 0 0 0 0 0 0 0 0 0 21 0 0 0 19 
		30 0 0 0 0 0 0 0 0 0 0 0 0 0 0 0 0 0 0 0 0 0 0 0 0 0 0 0 0 0 0 0 0 0 0 0 0 0 0 0 0 0 0 0 0 0 0 0 
		31 0 0 0 0 0 0 0 0 0 0 0 0 0 0 0 0 0 0 0 0 0 0 0 0 0 0 0 0 0 0 0 0 0 0 15 0 0 0 0 0 0 0 0 0 0 0 0 
		32 0 0 0 0 0 0 0 0 0 0 0 0 0 0 0 0 0 0 0 0 0 0 0 0 0 0 0 0 0 0 0 0 0 0 0 0 0 0 0 0 0 0 0 0 0 23 0 
		33 0 0 0 0 0 0 0 0 0 0 0 0 0 0 0 0 0 0 0 0 0 0 0 0 0 0 0 0 0 0 0 0 0 0 0 18 20 0 0 0 0 12 0 0 0 0 0 
		34 0 0 0 0 0 0 0 0 0 0 0 0 0 0 0 0 0 0 0 0 0 0 0 0 0 0 0 0 0 0 0 0 0 0 0 19 11 0 0 0 0 0 0 0 0 0 0 
		35 0 0 0 0 0 0 0 0 0 0 0 0 0 0 0 0 0 0 0 0 0 0 0 0 0 0 0 0 0 0 0 0 0 0 0 0 0 0 12 0 0 0 0 0 0 0 0 
		36 0 0 0 0 0 0 0 0 0 0 0 0 0 0 0 0 0 0 0 0 0 0 0 0 0 0 0 0 0 0 0 0 0 0 0 0 0 21 0 0 0 0 0 0 0 0 0 
		37 0 0 0 0 0 0 0 0 0 0 0 0 0 0 0 0 0 0 0 0 0 0 0 0 0 0 0 0 0 0 0 0 0 0 0 0 0 0 0 0 0 0 0 0 0 20 0 
		38 0 0 0 0 0 0 0 0 0 0 0 0 0 0 0 0 0 0 0 0 0 0 0 0 0 0 0 0 0 0 0 0 0 0 0 0 0 0 0 0 22 0 13 0 0 0 0 
		39 0 0 0 0 0 0 0 0 0 0 0 0 0 0 0 0 0 0 0 0 0 0 0 0 0 0 0 0 0 0 0 0 0 0 0 0 0 0 0 0 0 0 0 0 12 0 0 
		40 0 0 0 0 0 0 0 0 0 0 0 0 0 0 0 0 0 0 0 0 0 0 0 0 0 0 0 0 0 0 0 0 0 0 0 0 0 0 0 0 0 0 0 21 0 0 0 
		41 0 0 0 0 0 0 0 0 0 0 0 0 0 0 0 0 0 0 0 0 0 0 0 0 0 0 0 0 0 0 0 0 0 0 0 0 0 0 0 0 0 0 0 0 0 0 19 
		42 0 0 0 0 0 0 0 0 0 0 0 0 0 0 0 0 0 0 0 0 0 0 0 0 0 0 0 0 0 0 0 0 0 0 0 0 0 0 0 0 0 0 0 0 0 0 0 
		43 0 0 0 0 0 0 0 0 0 0 0 0 0 0 0 0 0 0 0 0 0 0 0 0 0 0 0 0 0 0 0 0 0 0 0 0 0 0 0 0 0 0 0 0 0 0 0 
		44 0 0 0 0 0 0 0 0 0 0 0 0 0 0 0 0 0 0 0 0 0 0 0 0 0 0 0 0 0 0 0 0 0 0 0 0 0 0 0 0 0 0 0 0 0 0 20 
		45 0 0 0 0 0 0 0 0 0 0 0 0 0 0 0 0 0 0 0 0 0 0 0 0 0 0 0 0 0 0 0 0 0 0 0 0 0 0 0 0 0 0 0 0 0 0 0 
		46 0 0 0 0 0 0 0 0 0 0 0 0 0 0 0 0 0 0 0 0 0 0 0 0 0 0 0 0 0 0 0 0 0 0 0 0 0 0 0 0 0 0 0 0 0 0 0 
;
param bs:	 0 1 2 3 4 5 6 7 8 9 10 11 12 13 14 15 16 17 18 19 20 21 22 23 24 25 26 27 28 29 30 31 32 33 34 35 36 37 38 39 40 41 42 43 44 45 46 47 48 49 50 51 52 53 54 55 56 57 58 59 60 61 62 63 64 65 66 67 68 69 70 71 72 73 74 75 76 77 78 79 80 81 82 83 84 85 86 87 88 89 90 91 92 93 94 95 96 97 := 
		0 0 0 0 0 0 0 0 0 0 0 0 0 0 0 0 0 0 0 0 0 0 0 0 0 0 0 0 0 0 0 0 0 0 0 0 0 0 0 0 0 0 0 0 0 0 0 26 0 0 0 0 0 0 30 0 0 0 0 0 38 0 0 28 0 28 0 0 0 0 0 0 0 0 0 0 0 0 0 0 35 29 20 0 0 0 0 38 0 0 0 0 0 0 0 0 0 0 0 
		1 0 0 0 24 0 0 0 0 0 0 35 0 0 0 0 0 24 37 0 0 0 0 0 0 0 0 0 24 0 0 0 23 0 0 0 0 0 35 0 0 0 0 0 0 0 0 0 0 0 0 21 0 0 0 0 28 0 0 0 0 0 0 0 0 22 0 0 0 28 0 0 0 0 0 0 0 21 20 0 0 0 0 0 34 0 32 0 0 0 0 0 0 0 0 0 0 0 0 
		2 0 0 0 0 0 40 0 0 0 0 0 0 0 0 0 20 0 0 22 0 0 0 0 0 0 0 0 0 0 0 0 0 0 0 0 27 22 0 0 36 0 0 0 0 0 0 0 0 0 0 39 0 0 0 0 0 0 0 27 0 35 0 0 0 0 0 0 0 0 21 0 0 0 0 0 0 0 0 0 0 0 0 0 0 0 0 0 0 0 0 0 0 0 0 0 0 33 0 
		3 0 24 0 0 0 23 0 0 0 0 0 0 28 0 0 31 0 0 0 0 0 0 0 0 0 0 0 0 0 0 0 0 0 0 0 0 0 0 0 0 0 0 0 0 0 0 0 0 0 0 0 38 28 0 0 0 0 0 0 0 0 0 0 0 0 0 0 0 21 0 36 0 0 0 0 0 0 0 0 0 0 0 26 0 25 0 0 0 0 0 0 0 0 30 0 0 0 0 
		4 0 0 0 0 0 0 0 0 0 0 0 0 0 0 0 0 0 0 0 40 0 0 0 0 0 0 0 0 0 0 0 0 0 0 0 0 0 0 0 0 0 0 0 0 0 0 37 0 0 0 24 0 0 0 0 25 0 0 0 0 40 0 0 0 0 0 0 0 0 0 0 0 0 0 29 0 0 0 0 0 0 0 0 0 0 0 0 0 0 0 0 0 0 0 0 0 0 0 
		5 0 0 40 23 0 0 40 0 0 0 0 0 0 0 0 0 0 0 0 0 0 0 0 0 0 0 0 0 0 0 0 0 0 0 0 0 0 0 0 0 34 28 0 0 0 0 0 0 0 0 0 0 0 0 0 0 0 0 0 0 0 0 0 0 0 0 0 0 0 0 0 0 0 0 0 0 0 0 0 29 0 0 0 36 0 0 0 0 0 0 0 23 0 0 0 0 0 0 
		6 0 0 0 0 0 40 0 0 0 0 0 0 0 0 0 0 0 0 25 0 23 0 0 0 0 0 0 0 0 0 23 0 0 0 29 38 0 0 31 0 0 21 0 0 0 0 0 0 23 0 0 0 0 36 0 27 0 0 0 0 0 0 0 0 0 32 0 0 0 23 0 0 0 23 0 0 0 25 0 0 0 0 0 0 0 0 0 29 0 31 0 25 0 0 34 0 33 0 
		7 0 0 0 0 0 0 0 0 0 0 22 0 0 0 27 0 0 0 0 0 23 0 0 0 0 0 0 0 0 0 26 22 0 0 39 0 0 24 0 0 0 0 0 0 0 0 0 0 0 0 0 0 0 0 0 0 0 0 0 0 0 0 23 0 0 0 0 0 0 0 0 0 0 0 0 0 0 0 0 0 0 0 0 0 0 0 0 0 0 0 0 0 0 36 0 0 0 34 
		8 0 0 0 0 0 0 0 0 0 0 0 0 0 0 0 0 0 0 0 0 0 0 0 0 0 0 0 0 0 0 0 0 0 0 0 0 0 0 0 21 0 0 0 0 0 0 0 0 0 0 0 0 0 0 0 0 0 0 0 0 0 0 0 0 0 0 0 0 0 0 0 40 0 0 0 27 0 0 0 0 0 0 0 0 0 0 0 0 0 0 0 0 0 0 0 0 0 0 
		9 0 0 0 0 0 0 0 0 0 0 0 0 0 28 0 0 0 0 27 0 0 0 0 0 0 0 0 0 0 0 31 0 0 24 40 0 0 0 0 0 29 0 30 0 0 29 0 0 0 0 0 26 0 0 0 0 0 0 0 0 0 0 0 0 0 0 40 0 0 0 0 0 0 0 37 0 0 0 0 0 0 21 0 0 23 0 0 0 36 0 0 0 0 0 0 0 0 0 
		10 0 35 0 0 0 0 0 22 0 0 0 0 0 0 0 0 0 0 0 0 0 0 0 0 0 0 0 0 0 0 28 0 0 0 23 0 0 0 0 0 0 0 0 0 0 23 0 0 0 0 0 0 0 0 0 0 0 0 35 0 0 0 0 0 0 0 0 0 0 0 0 0 0 0 32 0 0 0 0 0 0 24 0 0 0 0 0 0 33 0 0 0 0 0 0 0 36 0 
		11 0 0 0 0 0 0 0 0 0 0 0 0 0 0 0 0 31 0 0 38 0 0 0 0 0 39 0 0 0 0 0 0 0 0 0 0 0 0 0 0 0 0 0 0 0 0 0 0 0 0 0 0 0 0 0 0 0 0 0 0 0 0 0 0 0 0 0 0 24 0 0 37 0 0 28 0 0 0 0 32 0 0 0 0 0 29 0 29 0 33 0 0 0 0 0 0 0 0 
		12 0 0 0 28 0 0 0 0 0 0 0 0 0 21 35 0 0 0 22 0 0 0 0 0 39 0 0 0 0 0 0 0 0 0 0 0 0 0 0 0 0 0 0 0 0 0 0 0 0 0 0 0 0 0 0 0 0 0 0 0 0 0 0 0 0 36 0 0 0 30 0 0 0 0 0 21 0 0 0 0 0 0 0 0 0 0 0 0 0 0 30 0 24 0 0 0 0 0 
		13 0 0 0 0 0 0 0 0 0 28 0 0 21 0 0 0 0 0 0 0 0 0 0 0 0 20 0 0 0 0 0 0 24 0 0 0 31 0 0 0 0 0 26 0 0 0 0 22 0 39 0 0 0 0 0 0 0 0 0 29 32 0 0 0 0 0 0 21 0 0 0 0 0 0 0 0 0 0 0 0 0 0 0 0 0 0 0 0 0 0 0 0 0 40 0 0 37 0 
		14 0 0 0 0 0 0 0 27 0 0 0 0 35 0 0 0 0 0 0 0 0 0 0 0 35 0 0 0 0 0 0 0 28 26 0 39 0 0 0 0 0 0 0 0 0 0 0 0 0 0 0 0 0 0 0 0 0 36 0 0 0 0 0 0 0 0 0 0 0 0 0 0 0 0 29 0 0 0 27 0 0 0 0 28 0 0 0 0 0 0 0 0 0 0 0 24 0 0 
		15 0 0 20 31 0 0 0 0 0 0 0 0 0 0 0 0 0 0 0 0 0 26 0 0 37 0 0 0 0 0 0 0 0 27 0 0 0 38 0 0 0 32 0 0 0 0 0 0 0 0 0 0 0 33 0 0 0 0 36 0 0 0 0 0 0 34 0 31 0 36 0 0 0 0 0 0 0 0 0 35 0 0 0 0 0 0 0 0 0 0 0 0 0 0 0 0 0 0 
		16 0 24 0 0 0 0 0 0 0 0 0 31 0 0 0 0 0 0 0 0 0 0 0 0 0 0 0 0 0 0 0 0 0 0 0 0 0 0 0 36 0 0 0 0 0 0 28 0 0 0 0 0 0 0 0 0 0 0 0 0 0 20 0 0 0 0 0 0 0 0 0 30 0 0 0 0 0 0 0 0 0 0 0 0 0 0 0 0 0 25 0 0 0 0 0 0 0 0 
		17 0 37 0 0 0 0 0 0 0 0 0 0 0 0 0 0 0 0 0 0 0 0 0 0 0 0 0 0 0 0 0 0 0 0 0 21 0 0 0 0 0 0 0 0 0 0 0 0 39 0 0 0 0 0 0 36 0 0 20 0 0 0 0 0 0 0 29 0 0 0 0 0 0 0 24 0 0 0 0 0 0 0 0 0 0 0 0 0 0 0 0 31 0 0 0 0 0 0 
		18 0 0 22 0 0 0 25 0 0 27 0 0 22 0 0 0 0 0 0 0 0 0 0 0 23 0 0 0 0 0 0 0 0 0 0 22 0 33 0 28 0 0 38 0 0 0 0 0 0 0 0 0 0 40 0 21 0 37 20 0 0 0 0 33 0 0 0 0 0 0 0 0 0 0 0 0 0 20 0 0 0 0 0 0 32 0 0 0 0 22 30 0 0 0 0 0 0 0 
		19 0 0 0 0 40 0 0 0 0 0 0 38 0 0 0 0 0 0 0 0 0 0 22 0 0 0 0 0 22 0 0 0 0 0 0 0 0 0 0 0 0 0 0 0 0 0 26 0 0 0 0 0 0 0 0 0 0 0 0 0 24 30 0 0 0 0 0 0 0 0 0 0 0 0 0 0 0 0 0 0 0 0 28 29 0 34 0 0 0 0 0 0 0 0 0 0 0 0 
		20 0 0 0 0 0 0 23 23 0 0 0 0 0 0 0 0 0 0 0 0 0 0 39 0 0 0 0 0 0 0 0 0 0 29 21 0 0 33 0 0 0 0 0 0 0 0 0 0 0 0 0 0 0 0 29 0 0 0 0 0 0 0 0 0 28 0 0 0 0 0 0 0 23 0 0 0 0 33 0 26 0 0 0 0 0 0 24 0 0 0 25 0 0 0 0 36 0 23 
		21 0 0 0 0 0 0 0 0 0 0 0 0 0 0 0 26 0 0 0 0 0 0 0 0 33 0 0 0 0 0 0 0 0 0 37 0 0 0 0 0 0 0 0 0 0 22 0 0 0 0 0 0 0 0 0 0 0 0 0 0 0 0 0 0 0 0 0 0 27 0 0 0 0 0 0 0 0 0 0 0 0 0 0 0 0 0 0 39 0 0 0 0 0 0 0 33 34 0 
		22 0 0 0 0 0 0 0 0 0 0 0 0 0 0 0 0 0 0 0 22 39 0 0 0 0 0 0 0 0 0 0 23 0 0 0 0 0 0 0 36 0 0 0 0 0 0 0 0 0 0 0 38 0 0 0 0 0 0 0 0 0 0 0 0 0 26 0 0 0 0 0 0 0 0 0 34 0 0 0 0 0 0 0 39 0 0 0 0 0 24 0 0 0 0 0 0 0 0 
		23 0 0 0 0 0 0 0 0 0 0 0 0 0 0 0 0 0 0 0 0 0 0 0 0 0 0 0 0 0 0 0 0 0 0 0 0 0 0 25 0 0 30 30 0 0 0 0 0 21 0 0 0 0 0 0 0 0 0 0 0 37 0 0 0 25 0 0 0 0 0 0 0 0 0 0 0 29 0 0 0 21 0 0 0 0 20 0 0 31 0 0 0 0 0 25 0 0 40 
		24 0 0 0 0 0 0 0 0 0 0 0 0 39 0 35 37 0 0 23 0 0 33 0 0 0 0 0 0 0 0 0 0 0 23 0 0 0 0 0 0 0 23 0 21 0 0 0 0 24 0 0 24 0 0 0 31 0 0 31 0 0 0 0 0 0 0 0 0 39 0 0 0 0 0 0 0 0 0 0 37 0 0 0 0 0 0 0 0 0 0 26 0 0 0 0 0 0 24 
		25 0 0 0 0 0 0 0 0 0 0 0 39 0 20 0 0 0 0 0 0 0 0 0 0 0 0 0 0 0 0 0 0 0 0 0 0 0 0 22 40 0 0 0 0 0 0 0 0 0 0 0 0 0 0 0 0 0 0 0 0 0 34 0 0 29 0 0 39 0 0 0 0 0 0 31 0 0 0 0 0 21 0 0 0 27 24 21 0 0 0 0 0 0 29 20 0 0 0 
		26 0 0 0 0 0 0 0 0 0 0 0 0 0 0 0 0 0 0 0 0 0 0 0 0 0 0 0 0 33 0 0 0 0 0 0 0 0 0 0 29 0 0 0 0 0 0 0 0 0 0 0 0 0 0 0 0 0 0 0 0 0 0 0 0 0 0 0 0 0 0 0 24 0 0 0 28 0 0 0 0 0 0 0 0 0 0 0 25 0 0 0 0 0 0 0 0 0 0 
		27 0 24 0 0 0 0 0 0 0 0 0 0 0 0 0 0 0 0 0 0 0 0 0 0 0 0 0 0 0 33 0 0 0 0 0 0 0 0 0 0 0 0 0 0 24 0 0 0 0 0 0 0 0 0 0 0 0 0 0 0 0 0 0 0 0 0 36 0 0 0 0 0 0 32 0 0 0 0 0 0 0 0 0 0 0 0 0 0 0 40 0 0 0 0 0 0 0 0 
		28 0 0 0 0 0 0 0 0 0 0 0 0 0 0 0 0 0 0 0 22 0 0 0 0 0 0 33 0 0 0 0 0 40 0 0 0 0 0 0 0 0 0 0 0 0 0 0 0 20 0 0 0 0 0 0 0 0 0 0 0 28 0 0 0 0 0 0 0 0 0 0 34 0 0 0 0 0 0 0 0 0 0 0 36 0 0 0 0 0 0 0 0 0 0 0 27 0 26 
		29 0 0 0 0 0 0 0 0 0 0 0 0 0 0 0 0 0 0 0 0 0 0 0 0 0 0 0 33 0 0 0 0 0 0 0 0 0 0 0 0 0 0 0 0 0 0 0 0 0 26 0 0 0 0 0 0 29 0 0 0 0 0 0 0 0 0 26 0 0 0 0 0 0 0 0 0 0 0 0 0 0 0 0 0 0 0 0 0 0 0 0 0 0 0 0 0 0 0 
		30 0 0 0 0 0 0 23 26 0 31 28 0 0 0 0 0 0 0 0 0 0 0 0 0 0 0 0 0 0 0 0 0 0 35 0 0 0 0 0 0 0 0 0 0 0 0 0 0 0 0 0 0 0 0 0 20 0 0 0 22 0 0 0 0 0 0 0 0 0 0 0 0 0 0 0 0 0 0 39 0 0 0 0 0 0 0 0 0 0 0 0 0 0 0 0 0 0 0 
		31 0 23 0 0 0 0 0 22 0 0 0 0 0 0 0 0 0 0 0 0 0 0 23 0 0 0 0 0 0 0 0 0 0 0 0 0 0 0 0 0 0 0 37 0 0 0 35 34 0 0 0 0 0 0 0 0 0 0 0 23 38 38 0 0 0 0 0 0 0 0 0 35 0 0 0 0 39 0 0 0 0 0 0 0 0 20 0 0 0 0 0 0 0 0 0 0 0 0 
		32 0 0 0 0 0 0 0 0 0 0 0 0 0 24 28 0 0 0 0 0 0 0 0 0 0 0 0 0 40 0 0 0 0 0 0 0 0 0 0 39 0 0 0 0 35 0 0 0 0 0 0 0 0 29 0 0 0 0 0 0 0 39 0 0 0 0 0 0 0 0 0 0 0 0 0 0 29 27 31 0 0 0 0 0 26 0 0 0 0 0 0 0 0 0 0 0 0 0 
		33 0 0 0 0 0 0 0 0 0 24 0 0 0 0 26 27 0 0 0 0 29 0 0 0 23 0 0 0 0 0 35 0 0 0 0 0 0 31 0 0 0 0 0 0 0 0 0 20 0 0 0 0 0 21 0 0 0 0 0 0 0 0 0 0 0 0 0 0 0 0 0 0 0 0 0 0 0 0 0 0 0 0 0 0 0 0 0 0 0 0 0 0 0 25 0 0 0 0 
		34 0 0 0 0 0 0 29 39 0 40 23 0 0 0 0 0 0 0 0 0 21 37 0 0 0 0 0 0 0 0 0 0 0 0 0 0 0 0 0 0 0 0 0 0 0 0 0 39 0 0 0 36 0 0 0 0 0 0 0 32 0 0 0 0 0 0 0 31 0 0 0 0 0 0 0 0 0 0 0 0 0 0 0 0 0 0 0 0 0 0 0 26 0 0 0 22 0 0 
		35 0 0 27 0 0 0 38 0 0 0 0 0 0 0 39 0 0 21 22 0 0 0 0 0 0 0 0 0 0 0 0 0 0 0 0 0 0 0 0 0 0 32 0 33 0 0 0 0 0 0 0 22 0 0 0 0 0 0 0 0 0 0 0 0 0 0 0 0 0 0 21 0 0 0 34 0 0 0 30 0 0 0 0 0 0 0 0 0 0 0 0 0 28 0 0 0 40 0 
		36 0 0 22 0 0 0 0 0 0 0 0 0 0 31 0 0 0 0 0 0 0 0 0 0 0 0 0 0 0 0 0 0 0 0 0 0 0 0 24 35 0 0 0 31 0 0 0 0 0 0 0 0 0 0 0 0 0 0 0 0 0 0 0 0 0 0 0 0 22 0 0 38 0 35 0 0 0 0 0 0 0 0 0 0 0 0 0 0 0 0 0 0 0 35 0 0 21 0 
		37 0 35 0 0 0 0 0 24 0 0 0 0 0 0 0 38 0 0 33 0 33 0 0 0 0 0 0 0 0 0 0 0 0 31 0 0 0 0 0 0 0 0 0 0 0 0 0 0 0 0 0 0 0 0 20 0 0 0 0 27 0 0 0 23 0 0 0 0 0 0 0 0 0 0 0 0 0 0 0 28 0 0 0 0 0 0 0 36 0 0 0 37 0 0 0 0 0 0 
		38 0 0 0 0 0 0 31 0 0 0 0 0 0 0 0 0 0 0 0 0 0 0 0 25 0 22 0 0 0 0 0 0 0 0 0 0 24 0 0 0 31 0 32 0 0 0 0 0 0 0 31 0 23 0 0 0 0 0 0 0 0 0 0 29 0 0 0 0 0 0 0 0 0 0 0 0 33 0 0 0 0 0 0 0 0 0 0 0 0 0 0 0 0 26 0 0 0 0 
		39 0 0 36 0 0 0 0 0 21 0 0 0 0 0 0 0 36 0 28 0 0 0 36 0 0 40 29 0 0 0 0 0 39 0 0 0 35 0 0 0 0 29 0 0 0 0 0 0 0 0 0 0 0 0 0 0 0 0 34 0 0 0 0 0 0 0 0 0 0 0 0 0 34 31 0 0 0 0 0 0 0 0 0 33 0 0 0 0 0 0 0 0 0 26 0 0 38 0 
		40 0 0 0 0 0 34 0 0 0 29 0 0 0 0 0 0 0 0 0 0 0 0 0 0 0 0 0 0 0 0 0 0 0 0 0 0 0 0 31 0 0 0 23 0 28 0 0 0 0 0 0 0 0 0 0 0 0 0 0 0 0 0 0 0 0 0 0 0 0 0 0 0 0 0 0 0 30 0 0 0 0 0 0 0 0 0 0 0 0 0 0 0 0 0 0 0 0 0 
		41 0 0 0 0 0 28 21 0 0 0 0 0 0 0 0 32 0 0 0 0 0 0 0 30 23 0 0 0 0 0 0 0 0 0 0 32 0 0 0 29 0 0 0 0 0 0 0 0 0 0 0 0 0 0 0 21 0 33 25 0 0 0 0 0 0 0 0 0 34 0 0 0 0 0 27 0 0 0 0 0 0 0 0 0 0 0 0 31 0 36 21 0 0 0 39 0 21 0 
		42 0 0 0 0 0 0 0 0 0 30 0 0 0 26 0 0 0 0 38 0 0 0 0 30 0 0 0 0 0 0 0 37 0 0 0 0 0 0 32 0 23 0 0 0 0 0 0 0 0 0 29 0 0 0 0 0 0 27 0 0 0 0 0 0 0 0 0 0 0 0 0 0 0 0 0 0 0 22 0 0 0 23 29 0 0 0 0 0 0 0 0 0 0 40 0 0 0 0 
		43 0 0 0 0 0 0 0 0 0 0 0 0 0 0 0 0 0 0 0 0 0 0 0 0 21 0 0 0 0 0 0 0 0 0 0 33 31 0 0 0 0 0 0 0 0 0 0 0 0 40 0 0 0 0 0 0 0 0 0 0 0 0 0 0 0 0 0 0 28 0 22 0 0 0 20 0 0 0 0 0 0 0 29 0 0 0 0 0 0 0 0 0 0 0 0 0 0 0 
		44 0 0 0 0 0 0 0 0 0 0 0 0 0 0 0 0 0 0 0 0 0 0 0 0 0 0 0 24 0 0 0 0 35 0 0 0 0 0 0 0 28 0 0 0 0 0 0 0 0 0 35 0 0 0 0 0 0 0 0 0 0 0 0 0 0 0 26 0 0 0 0 26 0 0 0 0 27 0 0 0 0 0 0 0 0 0 0 0 0 0 0 0 0 0 0 0 32 0 
		45 0 0 0 0 0 0 0 0 0 29 23 0 0 0 0 0 0 0 0 0 0 22 0 0 0 0 0 0 0 0 0 0 0 0 0 0 0 0 0 0 0 0 0 0 0 0 0 29 0 0 0 0 0 0 0 0 0 0 0 0 0 0 0 0 27 0 0 0 0 0 0 0 0 0 0 0 0 0 0 0 36 0 0 0 0 0 0 0 22 0 40 0 0 0 0 0 39 24 
		46 26 0 0 0 37 0 0 0 0 0 0 0 0 0 0 0 28 0 0 26 0 0 0 0 0 0 0 0 0 0 0 35 0 0 0 0 0 0 0 0 0 0 0 0 0 0 0 0 0 0 0 0 0 0 0 0 0 0 0 0 0 0 0 0 0 0 0 0 39 0 0 0 0 0 0 0 0 0 0 0 0 0 0 0 0 0 0 37 0 0 0 0 39 24 0 0 0 0 
		47 0 0 0 0 0 0 0 0 0 0 0 0 0 22 0 0 0 0 0 0 0 0 0 0 0 0 0 0 0 0 0 34 0 20 39 0 0 0 0 0 0 0 0 0 0 29 0 0 0 0 0 25 0 0 0 0 0 0 0 0 0 0 0 0 29 0 0 0 0 0 0 0 0 0 0 0 0 0 0 0 0 25 0 0 0 0 0 0 0 0 0 0 0 30 0 0 0 0 
		48 0 0 0 0 0 0 23 0 0 0 0 0 0 0 0 0 0 39 0 0 0 0 0 21 24 0 0 0 20 0 0 0 0 0 0 0 0 0 0 0 0 0 0 0 0 0 0 0 0 0 0 0 0 0 0 0 0 0 0 0 0 40 0 0 32 0 0 0 0 0 29 0 0 0 0 0 0 21 0 0 0 0 0 0 0 0 0 0 0 0 0 0 0 0 0 0 0 0 
		49 0 0 0 0 0 0 0 0 0 0 0 0 0 39 0 0 0 0 0 0 0 0 0 0 0 0 0 0 0 26 0 0 0 0 0 0 0 0 0 0 0 0 0 40 0 0 0 0 0 0 0 0 0 0 0 0 0 0 0 0 27 0 0 0 39 0 0 0 0 0 0 0 0 0 0 25 0 0 0 0 0 0 0 0 0 40 0 0 0 0 0 0 0 0 0 0 0 0 
		50 0 21 39 0 24 0 0 0 0 0 0 0 0 0 0 0 0 0 0 0 0 0 0 0 0 0 0 0 0 0 0 0 0 0 0 0 0 0 31 0 0 0 29 0 35 0 0 0 0 0 0 0 0 0 0 0 22 0 0 0 0 0 0 0 0 0 0 0 0 0 0 24 0 0 0 0 0 0 0 34 0 0 0 0 0 21 0 0 0 31 0 0 0 0 0 0 0 0 
		51 0 0 0 38 0 0 0 0 0 26 0 0 0 0 0 0 0 0 0 0 0 0 38 0 24 0 0 0 0 0 0 0 0 0 36 22 0 0 0 0 0 0 0 0 0 0 0 25 0 0 0 0 0 0 0 0 0 0 29 0 0 0 0 0 0 0 0 0 0 0 0 0 0 0 0 0 0 0 40 0 0 25 0 0 0 0 32 21 0 0 29 0 0 0 0 0 0 0 
		52 0 0 0 28 0 0 0 0 0 0 0 0 0 0 0 0 0 0 0 0 0 0 0 0 0 0 0 0 0 0 0 0 0 0 0 0 0 0 23 0 0 0 0 0 0 0 0 0 0 0 0 0 0 0 0 0 0 0 0 0 0 39 0 0 0 0 0 0 0 0 0 0 0 0 0 0 0 0 0 0 0 0 0 0 0 0 0 0 0 0 0 0 0 0 0 0 0 0 
		53 30 0 0 0 0 0 36 0 0 0 0 0 0 0 0 33 0 0 40 0 0 0 0 0 0 0 0 0 0 0 0 0 29 21 0 0 0 0 0 0 0 0 0 0 0 0 0 0 0 0 0 0 0 0 0 0 0 0 0 0 0 0 0 0 0 0 0 0 0 0 0 0 0 0 0 0 0 0 27 0 31 29 31 0 0 0 30 0 0 0 0 0 0 26 0 0 0 0 
		54 0 0 0 0 0 0 0 0 0 0 0 0 0 0 0 0 0 0 0 0 29 0 0 0 0 0 0 0 0 0 0 0 0 0 0 0 0 20 0 0 0 0 0 0 0 0 0 0 0 0 0 0 0 0 0 0 0 0 0 0 0 0 0 0 0 38 0 0 0 0 0 0 0 0 0 0 0 0 0 0 0 38 36 0 0 0 0 0 0 0 23 0 0 0 0 39 25 38 
		55 0 28 0 0 25 0 27 0 0 0 0 0 0 0 0 0 0 36 21 0 0 0 0 0 31 0 0 0 0 0 20 0 0 0 0 0 0 0 0 0 0 21 0 0 0 0 0 0 0 0 0 0 0 0 0 0 0 0 27 0 0 39 0 0 0 0 0 0 0 0 31 0 0 0 0 0 29 0 0 0 0 0 0 0 0 0 0 0 26 0 0 0 0 0 0 0 0 0 
		56 0 0 0 0 0 0 0 0 0 0 0 0 0 0 0 0 0 0 0 0 0 0 0 0 0 0 0 0 0 29 0 0 0 0 0 0 0 0 0 0 0 0 0 0 0 0 0 0 0 0 22 0 0 0 0 0 0 0 0 0 0 0 0 0 0 0 0 0 0 0 0 0 0 0 0 0 0 0 0 0 0 0 0 0 0 0 0 0 0 0 0 0 0 0 0 0 0 0 
		57 0 0 0 0 0 0 0 0 0 0 0 0 0 0 36 0 0 0 37 0 0 0 0 0 0 0 0 0 0 0 0 0 0 0 0 0 0 0 0 0 0 33 27 0 0 0 0 0 0 0 0 0 0 0 0 0 0 0 0 0 0 0 0 0 0 0 0 0 0 0 0 0 0 0 0 0 0 0 0 0 0 0 0 0 0 0 0 0 0 0 0 40 0 0 37 37 0 0 
		58 0 0 27 0 0 0 0 0 0 0 35 0 0 0 0 36 0 20 20 0 0 0 0 0 31 0 0 0 0 0 0 0 0 0 0 0 0 0 0 34 0 25 0 0 0 0 0 0 0 0 0 29 0 0 0 27 0 0 0 0 0 31 0 0 0 0 0 0 25 0 0 0 0 0 0 0 0 0 0 0 0 0 0 0 0 0 0 38 0 0 0 0 0 0 26 0 27 0 
		59 38 0 0 0 0 0 0 0 0 0 0 0 0 29 0 0 0 0 0 0 0 0 0 0 0 0 0 0 0 0 22 23 0 0 32 0 0 27 0 0 0 0 0 0 0 0 0 0 0 0 0 0 0 0 0 0 0 0 0 0 0 0 0 0 35 0 0 0 0 0 0 0 0 0 0 0 0 0 0 0 0 36 0 0 32 38 0 0 0 0 0 0 0 0 0 0 0 0 
		60 0 0 35 0 40 0 0 0 0 0 0 0 0 32 0 0 0 0 0 24 0 0 0 37 0 0 0 0 28 0 0 38 0 0 0 0 0 0 0 0 0 0 0 0 0 0 0 0 0 27 0 0 0 0 0 0 0 0 0 0 0 0 0 0 0 0 0 0 0 0 0 0 0 0 0 0 0 0 0 40 0 0 0 32 37 0 0 0 0 0 0 0 0 0 0 0 34 0 
		61 0 0 0 0 0 0 0 0 0 0 0 0 0 0 0 0 20 0 0 30 0 0 0 0 0 34 0 0 0 0 0 38 39 0 0 0 0 0 0 0 0 0 0 0 0 0 0 0 40 0 0 0 39 0 0 39 0 0 31 0 0 0 0 36 0 0 0 0 0 0 0 0 26 0 0 0 0 0 0 0 0 0 0 0 0 0 0 27 0 31 0 0 32 0 28 0 0 0 
		62 28 0 0 0 0 0 0 23 0 0 0 0 0 0 0 0 0 0 0 0 0 0 0 0 0 0 0 0 0 0 0 0 0 0 0 0 0 0 0 0 0 0 0 0 0 0 0 0 0 0 0 0 0 0 0 0 0 0 0 0 0 0 0 0 0 0 0 0 0 0 0 0 0 35 0 0 0 0 30 0 0 0 0 0 0 0 21 0 0 0 0 0 0 0 0 0 0 0 
		63 0 0 0 0 0 0 0 0 0 0 0 0 0 0 0 0 0 0 33 0 0 0 0 0 0 0 0 0 0 0 0 0 0 0 0 0 0 23 29 0 0 0 0 0 0 0 0 0 0 0 0 0 0 0 0 0 0 0 0 0 0 36 0 0 0 0 0 0 0 0 0 0 0 0 0 0 0 37 38 0 25 0 0 0 37 0 0 0 0 0 0 0 0 0 0 0 0 0 
		64 28 22 0 0 0 0 0 0 0 0 0 0 0 0 0 0 0 0 0 0 28 0 0 25 0 29 0 0 0 0 0 0 0 0 0 0 0 0 0 0 0 0 0 0 0 27 0 29 32 39 0 0 0 0 0 0 0 0 0 35 0 0 0 0 0 0 0 0 0 0 0 0 0 0 0 0 0 0 0 0 0 0 0 0 21 0 0 0 0 0 0 0 0 0 36 0 0 0 
		65 0 0 0 0 0 0 32 0 0 0 0 0 36 0 0 34 0 0 0 0 0 0 26 0 0 0 0 0 0 0 0 0 0 0 0 0 0 0 0 0 0 0 0 0 0 0 0 0 0 0 0 0 0 0 38 0 0 0 0 0 0 0 0 0 0 0 0 27 0 40 0 0 0 0 0 0 0 0 0 0 0 0 0 0 0 0 0 0 0 0 0 0 0 0 0 0 0 0 
		66 0 0 0 0 0 0 0 0 0 40 0 0 0 0 0 0 0 29 0 0 0 0 0 0 0 0 0 36 0 26 0 0 0 0 0 0 0 0 0 0 0 0 0 0 26 0 0 0 0 0 0 0 0 0 0 0 0 0 0 0 0 0 0 0 0 0 0 0 0 0 0 0 0 0 0 0 0 0 0 0 0 0 0 0 0 0 0 0 0 0 0 0 0 0 0 0 0 0 
		67 0 0 0 0 0 0 0 0 0 0 0 0 0 21 0 31 0 0 0 0 0 0 0 0 0 39 0 0 0 0 0 0 0 0 31 0 0 0 0 0 0 0 0 0 0 0 0 0 0 0 0 0 0 0 0 0 0 0 0 0 0 0 0 0 0 27 0 0 0 0 0 0 0 0 0 0 0 39 0 0 0 0 38 0 0 0 0 0 0 0 0 0 0 0 0 0 0 0 
		68 0 28 0 21 0 0 0 0 0 0 0 24 0 0 0 0 0 0 0 0 0 27 0 0 39 0 0 0 0 0 0 0 0 0 0 0 22 0 0 0 0 34 0 28 0 0 39 0 0 0 0 0 0 0 0 0 0 0 25 0 0 0 0 0 0 0 0 0 0 0 0 0 0 26 0 20 0 29 0 0 0 0 28 0 0 0 0 0 0 0 0 0 40 37 0 0 33 0 
		69 0 0 21 0 0 0 23 0 0 0 0 0 30 0 0 36 0 0 0 0 0 0 0 0 0 0 0 0 0 0 0 0 0 0 0 0 0 0 0 0 0 0 0 0 0 0 0 0 0 0 0 0 0 0 0 0 0 0 0 0 0 0 0 0 0 40 0 0 0 0 0 0 0 0 0 0 0 0 0 0 0 0 0 0 0 0 0 0 0 0 0 0 35 0 0 0 26 0 
		70 0 0 0 36 0 0 0 0 0 0 0 0 0 0 0 0 0 0 0 0 0 0 0 0 0 0 0 0 0 0 0 0 0 0 0 21 0 0 0 0 0 0 0 22 0 0 0 0 29 0 0 0 0 0 0 31 0 0 0 0 0 0 0 0 0 0 0 0 0 0 0 0 0 20 0 0 0 0 0 29 0 0 0 0 0 0 0 20 0 0 0 29 0 0 0 0 40 33 
		71 0 0 0 0 0 0 0 0 40 0 0 37 0 0 0 0 30 0 0 0 0 0 0 0 0 0 24 0 34 0 0 35 0 0 0 0 38 0 0 0 0 0 0 0 26 0 0 0 0 0 24 0 0 0 0 0 0 0 0 0 0 0 0 0 0 0 0 0 0 0 0 0 0 0 0 0 0 0 0 30 0 0 0 25 0 27 0 0 0 0 0 0 0 0 0 0 0 0 
		72 0 0 0 0 0 0 0 0 0 0 0 0 0 0 0 0 0 0 0 0 23 0 0 0 0 0 0 0 0 0 0 0 0 0 0 0 0 0 0 34 0 0 0 0 0 0 0 0 0 0 0 0 0 0 0 0 0 0 0 0 0 26 0 0 0 0 0 0 0 0 0 0 0 33 0 0 0 0 0 0 0 0 0 0 0 0 0 29 0 0 0 0 0 0 0 0 0 0 
		73 0 0 0 0 0 0 23 0 0 0 0 0 0 0 0 0 0 0 0 0 0 0 0 0 0 0 0 32 0 0 0 0 0 0 0 0 35 0 0 31 0 0 0 0 0 0 0 0 0 0 0 0 0 0 0 0 0 0 0 0 0 0 35 0 0 0 0 0 26 0 20 0 33 0 0 0 0 0 0 0 0 26 0 0 0 0 0 0 0 0 0 0 0 0 0 0 29 0 
		74 0 0 0 0 29 0 0 0 0 37 32 28 0 0 29 0 0 24 0 0 0 0 0 0 0 31 0 0 0 0 0 0 0 0 0 34 0 0 0 0 0 27 0 20 0 0 0 0 0 0 0 0 0 0 0 0 0 0 0 0 0 0 0 0 0 0 0 0 0 0 0 0 0 0 0 0 0 0 29 0 0 0 0 0 39 29 0 0 0 0 0 0 0 0 0 0 23 0 
		75 0 0 0 0 0 0 0 0 27 0 0 0 21 0 0 0 0 0 0 0 0 0 34 0 0 0 28 0 0 0 0 0 0 0 0 0 0 0 0 0 0 0 0 0 0 0 0 0 0 25 0 0 0 0 0 0 0 0 0 0 0 0 0 0 0 0 0 0 20 0 0 0 0 0 0 0 0 0 0 0 0 0 0 0 0 0 0 0 0 0 0 0 0 0 0 0 0 0 
		76 0 21 0 0 0 0 0 0 0 0 0 0 0 0 0 0 0 0 0 0 0 0 0 29 0 0 0 0 0 0 0 39 29 0 0 0 0 0 33 0 30 0 0 0 27 0 0 0 0 0 0 0 0 0 0 29 0 0 0 0 0 0 0 0 0 0 0 0 0 0 0 0 0 0 0 0 0 0 0 0 0 0 0 0 0 0 0 0 0 0 0 0 0 0 0 0 28 0 
		77 0 20 0 0 0 0 25 0 0 0 0 0 0 0 0 0 0 0 20 0 33 0 0 0 0 0 0 0 0 0 0 0 27 0 0 0 0 0 0 0 0 0 22 0 0 0 0 0 21 0 0 0 0 0 0 0 0 0 0 0 0 0 0 37 0 0 0 39 29 0 0 0 0 0 0 0 0 0 22 36 0 28 0 0 0 29 32 0 0 0 0 0 0 0 36 0 0 0 
		78 0 0 0 0 0 0 0 0 0 0 0 0 0 0 27 0 0 0 0 0 0 0 0 0 0 0 0 0 0 0 39 0 31 0 0 30 0 0 0 0 0 0 0 0 0 0 0 0 0 0 0 40 0 27 0 0 0 0 0 0 0 0 30 38 0 0 0 0 0 0 0 0 0 0 29 0 0 22 0 0 34 37 0 0 0 25 0 0 0 0 0 0 0 40 0 0 0 0 
		79 35 0 0 0 0 29 0 0 0 0 0 32 0 0 0 35 0 0 0 0 26 0 0 0 37 0 0 0 0 0 0 0 0 0 0 0 0 28 0 0 0 0 0 0 0 0 0 0 0 0 34 0 0 0 0 0 0 0 0 0 40 0 0 0 0 0 0 0 0 0 29 30 0 0 0 0 0 36 0 0 0 0 0 0 0 0 0 0 21 0 0 0 0 0 25 0 0 0 
		80 29 0 0 0 0 0 0 0 0 0 0 0 0 0 0 0 0 0 0 0 0 0 0 21 0 21 0 0 0 0 0 0 0 0 0 0 0 0 0 0 0 0 0 0 0 36 0 0 0 0 0 0 0 31 0 0 0 0 0 0 0 0 0 25 0 0 0 0 0 0 0 0 0 0 0 0 0 0 34 0 0 26 0 0 0 0 0 0 30 0 0 0 0 36 0 0 0 0 
		81 20 0 0 0 0 0 0 0 0 21 24 0 0 0 0 0 0 0 0 0 0 0 0 0 0 0 0 0 0 0 0 0 0 0 0 0 0 0 0 0 0 0 23 0 0 0 0 25 0 0 0 25 0 29 38 0 0 0 0 36 0 0 0 0 0 0 0 0 0 0 0 0 0 26 0 0 0 28 37 0 26 0 0 0 0 0 0 0 38 0 0 0 0 0 0 0 0 0 
		82 0 0 0 26 0 0 0 0 0 0 0 0 0 0 0 0 0 0 0 28 0 0 0 0 0 0 0 0 0 0 0 0 0 0 0 0 0 0 0 0 0 0 29 29 0 0 0 0 0 0 0 0 0 31 36 0 0 0 0 0 0 0 0 0 0 0 0 38 28 0 0 0 0 0 0 0 0 0 0 0 0 0 0 0 0 0 0 0 0 0 0 0 0 38 0 0 0 0 
		83 0 34 0 0 0 36 0 0 0 0 0 0 0 0 28 0 0 0 0 29 0 0 39 0 0 0 0 0 36 0 0 0 0 0 0 0 0 0 0 33 0 0 0 0 0 0 0 0 0 0 0 0 0 0 0 0 0 0 0 0 32 0 0 0 0 0 0 0 0 0 0 25 0 0 0 0 0 0 0 0 0 0 0 0 0 0 0 0 0 25 0 0 0 0 0 0 0 0 
		84 0 0 0 25 0 0 0 0 0 23 0 0 0 0 0 0 0 0 32 0 0 0 0 0 0 27 0 0 0 0 0 0 26 0 0 0 0 0 0 0 0 0 0 0 0 0 0 0 0 0 0 0 0 0 0 0 0 0 0 32 37 0 0 37 21 0 0 0 0 0 0 0 0 0 39 0 0 0 0 0 0 0 0 0 0 0 0 0 0 0 28 0 38 0 0 0 0 0 
		85 0 32 0 0 0 0 0 0 0 0 0 29 0 0 0 0 0 0 0 34 0 0 0 20 0 24 0 0 0 0 0 20 0 0 0 0 0 0 0 0 0 0 0 0 0 0 0 0 0 40 21 0 0 0 0 0 0 0 0 38 0 0 0 0 0 0 0 0 0 0 0 27 0 0 29 0 0 29 25 0 0 0 0 0 0 0 0 0 0 0 0 0 0 0 0 0 0 0 
		86 38 0 0 0 0 0 0 0 0 0 0 0 0 0 0 0 0 0 0 0 24 0 0 0 0 21 0 0 0 0 0 0 0 0 0 0 0 0 0 0 0 0 0 0 0 0 0 0 0 0 0 32 0 30 0 0 0 0 0 0 0 0 21 0 0 0 0 0 0 0 0 0 0 0 0 0 0 32 0 0 0 0 0 0 0 0 0 0 0 0 0 0 0 0 0 0 0 0 
		87 0 0 0 0 0 0 29 0 0 0 0 29 0 0 0 0 0 0 0 0 0 39 0 0 0 0 25 0 0 0 0 0 0 0 0 0 0 36 0 0 0 31 0 0 0 0 37 0 0 0 0 21 0 0 0 0 0 0 38 0 0 27 0 0 0 0 0 0 0 0 20 0 29 0 0 0 0 0 0 0 0 0 0 0 0 0 0 0 0 0 0 0 0 0 0 21 0 36 
		88 0 0 0 0 0 0 0 0 0 36 33 0 0 0 0 0 0 0 0 0 0 0 0 31 0 0 0 0 0 0 0 0 0 0 0 0 0 0 0 0 0 0 0 0 0 22 0 0 0 0 0 0 0 0 0 26 0 0 0 0 0 0 0 0 0 0 0 0 0 0 0 0 0 0 0 0 0 0 0 21 30 38 0 0 0 0 0 0 0 0 0 38 0 0 0 0 0 0 
		89 0 0 0 0 0 0 31 0 0 0 0 33 0 0 0 0 25 0 22 0 0 0 24 0 0 0 0 40 0 0 0 0 0 0 0 0 0 0 0 0 0 36 0 0 0 0 0 0 0 0 31 0 0 0 0 0 0 0 0 0 0 31 0 0 0 0 0 0 0 0 0 0 0 0 0 0 0 0 0 0 0 0 0 25 0 0 0 0 0 0 0 0 0 0 0 0 0 0 
		90 0 0 0 0 0 0 0 0 0 0 0 0 30 0 0 0 0 0 30 0 25 0 0 0 26 0 0 0 0 0 0 0 0 0 0 0 0 0 0 0 0 21 0 0 0 40 0 0 0 0 0 29 0 0 23 0 0 0 0 0 0 0 0 0 0 0 0 0 0 0 0 0 0 0 0 0 0 0 0 0 0 0 0 0 28 0 0 0 0 0 0 0 0 0 39 0 0 0 
		91 0 0 0 0 0 23 25 0 0 0 0 0 0 0 0 0 0 31 0 0 0 0 0 0 0 0 0 0 0 0 0 0 0 0 26 0 0 37 0 0 0 0 0 0 0 0 0 0 0 0 0 0 0 0 0 0 0 40 0 0 0 0 0 0 0 0 0 0 0 0 29 0 0 0 0 0 0 0 0 0 0 0 0 0 0 0 0 0 38 0 0 0 28 0 0 0 0 0 
		92 0 0 0 0 0 0 0 0 0 0 0 0 24 0 0 0 0 0 0 0 0 0 0 0 0 0 0 0 0 0 0 0 0 0 0 28 0 0 0 0 0 0 0 0 0 0 39 0 0 0 0 0 0 0 0 0 0 0 0 0 0 32 0 0 0 0 0 0 40 35 0 0 0 0 0 0 0 0 0 0 0 0 0 0 38 0 0 0 0 0 0 28 0 0 0 0 0 0 
		93 0 0 0 30 0 0 0 36 0 0 0 0 0 40 0 0 0 0 0 0 0 0 0 0 0 29 0 0 0 0 0 0 0 25 0 0 35 0 26 26 0 0 40 0 0 0 24 30 0 0 0 0 0 26 0 0 0 0 0 0 0 0 0 0 0 0 0 0 37 0 0 0 0 0 0 0 0 0 40 0 36 0 38 0 0 0 0 0 0 0 0 0 0 0 0 0 23 0 
		94 0 0 0 0 0 0 34 0 0 0 0 0 0 0 0 0 0 0 0 0 0 0 0 25 0 20 0 0 0 0 0 0 0 0 0 0 0 0 0 0 0 39 0 0 0 0 0 0 0 0 0 0 0 0 0 0 0 37 26 0 0 28 0 0 36 0 0 0 0 0 0 0 0 0 0 0 0 36 0 25 0 0 0 0 0 0 0 0 0 0 39 0 0 0 0 0 0 0 
		95 0 0 0 0 0 0 0 0 0 0 0 0 0 0 24 0 0 0 0 0 36 33 0 0 0 0 0 0 27 0 0 0 0 0 22 0 0 0 0 0 0 0 0 0 0 0 0 0 0 0 0 0 0 0 39 0 0 37 0 0 0 0 0 0 0 0 0 0 0 0 0 0 0 0 0 0 0 0 0 0 0 0 0 0 0 0 0 21 0 0 0 0 0 0 0 0 0 0 
		96 0 0 33 0 0 0 33 0 0 0 36 0 0 37 0 0 0 0 0 0 0 34 0 0 0 0 0 0 0 0 0 0 0 0 0 40 21 0 0 38 0 21 0 0 32 39 0 0 0 0 0 0 0 0 25 0 0 0 27 0 34 0 0 0 0 0 0 0 33 26 40 0 0 29 23 0 28 0 0 0 0 0 0 0 0 0 0 0 0 0 0 0 0 23 0 0 0 0 
		97 0 0 0 0 0 0 0 34 0 0 0 0 0 0 0 0 0 0 0 0 23 0 0 40 24 0 0 0 26 0 0 0 0 0 0 0 0 0 0 0 0 0 0 0 0 24 0 0 0 0 0 0 0 0 38 0 0 0 0 0 0 0 0 0 0 0 0 0 0 0 33 0 0 0 0 0 0 0 0 0 0 0 0 0 0 0 0 36 0 0 0 0 0 0 0 0 0 0 
;
